nNurses = 166;
nHours = 27;
minHours = 5;
maxHours = 17;
maxConsec = 11;
maxPresence = 23;
demand = [40, 40, 38, 40, 40, 36, 39, 39, 37, 38, 34, 33, 37, 37, 32, 33, 37, 36, 38, 33, 33, 31, 28, 23, 27, 30, 34];
